StudentsNr = 10;
InstructorsNr = 51;
DaysNr = 2;
SlotsPerDay = 10;
AvailabilitySlotsLenght = 2;
RoomNr = 2;
ProgrammNr = 2;
DegreeNr = 1;
RolesNr = 4;
CoursesNr = 7;
InstructorsProgramm = [{1, 2}, {1}, {2}, {1, 2}, {2}, {1}, {2}, {1}, {1}, {1}, {1}, {1}, {1}, {1, 2}, {1}, {1}, {1}, {1, 2}, {1, 2}, {1, 2}, {1, 2}, {1}, {2}, {2}, {1, 2}, {1}, {2}, {2}, {1, 2}, {2}, {1, 2}, {1, 2}, {2}, {1}, {1, 2}, {1}, {1}, {1, 2}, {2}, {1, 2}, {1}, {1, 2}, {1, 2}, {2}, {1}, {1}, {2}, {1, 2}, {1, 2}, {2}, {2}];
InstructorRolesPerProgramm = [|{4, 8, 9, 10, 11, 12, 13, 14, 15, 18, 19, 20, 26, 31, 34, 36, 37, 41, 46, 49}, {6, 8, 16, 17, 21, 22, 31, 38, 40, 43, 49}, {4, 8, 12, 13, 15, 16, 18, 22, 26, 36, 41, 48}, {6, 10, 11, 12, 17, 18, 20, 29, 40, 45, 48, 49}|{3, 4, 14, 18, 19, 20, 23, 28, 30, 31, 39, 49}, {3, 21, 24, 31, 33, 38, 40, 43, 47, 49}, {3, 4, 18, 23, 30, 47, 48, 51}, {3, 5, 18, 20, 24, 28, 29, 39, 40, 48, 49, 51}|];
InstructorsAvailability = [|1, 0, 1, 1, 1, 1, 1, 1, 1, 1, |1, 0, 0, 0, 1, 1, 1, 1, 1, 1, |0, 0, 1, 1, 1, 1, 1, 1, 1, 1, |0, 0, 1, 1, 1, 1, 1, 1, 0, 1, |1, 1, 1, 1, 1, 1, 1, 1, 1, 1, |0, 0, 1, 1, 1, 1, 1, 0, 0, 0, |1, 1, 1, 1, 1, 0, 1, 1, 1, 1, |0, 1, 1, 1, 1, 1, 1, 1, 0, 0, |0, 1, 1, 1, 1, 1, 1, 1, 1, 1, |1, 1, 1, 1, 1, 1, 1, 0, 1, 1, |0, 1, 1, 1, 1, 1, 1, 1, 1, 1, |0, 0, 0, 1, 1, 1, 1, 1, 1, 1, |1, 1, 1, 1, 1, 1, 1, 1, 1, 1, |0, 1, 1, 1, 1, 0, 1, 1, 1, 0, |0, 1, 1, 1, 1, 1, 1, 1, 1, 1, |1, 1, 1, 1, 1, 1, 1, 0, 1, 1, |0, 0, 1, 1, 1, 1, 1, 1, 1, 1, |0, 1, 1, 0, 0, 0, 0, 1, 1, 1, |1, 1, 1, 1, 0, 0, 0, 0, 0, 1, |1, 1, 1, 1, 1, 0, 1, 1, 1, 1, |0, 0, 0, 1, 1, 1, 1, 1, 0, 0, |0, 0, 1, 1, 1, 1, 1, 1, 1, 1, |1, 1, 1, 0, 1, 1, 1, 1, 1, 1, |0, 1, 1, 1, 1, 1, 1, 1, 1, 0, |0, 0, 0, 0, 1, 1, 0, 1, 1, 1, |0, 1, 1, 1, 1, 1, 0, 1, 1, 1, |0, 1, 1, 1, 1, 1, 1, 1, 1, 1, |1, 1, 1, 1, 1, 1, 1, 1, 1, 1, |0, 0, 1, 0, 1, 1, 0, 0, 1, 1, |1, 1, 0, 1, 0, 0, 1, 1, 1, 1, |0, 0, 1, 1, 1, 1, 1, 1, 1, 1, |0, 1, 1, 1, 0, 1, 0, 1, 1, 1, |1, 1, 1, 1, 1, 1, 1, 1, 1, 1, |1, 1, 1, 1, 1, 1, 1, 1, 1, 1, |1, 1, 0, 1, 1, 1, 1, 1, 1, 1, |0, 1, 1, 0, 1, 1, 1, 1, 1, 0, |1, 1, 1, 1, 1, 1, 1, 1, 1, 1, |0, 0, 0, 1, 0, 0, 1, 1, 1, 1, |1, 1, 1, 1, 1, 1, 1, 1, 1, 1, |1, 1, 1, 1, 0, 1, 1, 0, 0, 1, |1, 1, 0, 1, 1, 1, 1, 1, 1, 1, |1, 1, 1, 1, 0, 1, 1, 1, 1, 1, |0, 1, 0, 0, 0, 0, 1, 1, 0, 1, |0, 1, 1, 1, 1, 0, 0, 1, 0, 0, |0, 1, 0, 0, 1, 1, 1, 1, 1, 1, |1, 1, 1, 1, 1, 1, 1, 1, 1, 1, |1, 1, 1, 1, 1, 1, 1, 1, 1, 1, |1, 1, 1, 1, 1, 1, 1, 1, 1, 1, |1, 1, 1, 1, 1, 1, 1, 1, 1, 1, |0, 1, 1, 1, 1, 1, 1, 1, 1, 1, |0, 1, 1, 1, 1, 1, 1, 1, 1, 1|];
StudentsProgramm = [2, 2, 1, 1, 1, 1, 2, 2, 2, 2];
StudentsDegree = [1, 1, 1, 1, 1, 1, 1, 1, 1, 1];
StudentsSupervisorId = [38, 47, 13, 32, 49, 22, 47, 27, 38, 29];
StudentsCourseIds = [{1, 4, 6}, {2, 4, 6}, {1, 4, 5}, {2, 3, 7}, {4, 6, 7}, {1, 2, 4}, {2, 3, 5}, {1, 2, 3}, {3, 4, 6}, {3, 4, 5}];
StudentsAvailability = [|1, 1, 1, 1, 1, 0, 0, 0, 0, 1, |0, 1, 1, 1, 1, 1, 1, 1, 1, 1, |1, 1, 1, 1, 1, 1, 1, 1, 1, 1, |0, 1, 0, 0, 0, 1, 1, 1, 1, 0, |0, 0, 0, 1, 1, 1, 1, 1, 0, 1, |1, 0, 0, 0, 0, 0, 0, 0, 0, 1, |1, 1, 1, 1, 1, 1, 1, 1, 1, 1, |0, 0, 1, 1, 0, 1, 1, 1, 1, 1, |0, 1, 1, 1, 1, 1, 1, 1, 1, 1, |1, 1, 1, 1, 1, 1, 1, 1, 1, 1|];
TheoryticalMinCard = [1, 1, 0, 0, 0, 0, 0, 0, 1, 0];
CoursesInstructorIds = [{1, 2, 4, 5, 6, 7, 8, 10, 11, 15, 16, 17, 18, 19, 22, 23, 25, 26, 27, 34, 35, 36, 42, 43, 44, 45, 48, 49, 51}, {1, 3, 5, 7, 11, 14, 16, 17, 18, 20, 21, 23, 26, 27, 28, 31, 32, 34, 35, 38, 40, 41, 43, 44, 46, 47, 48}, {7, 8, 9, 11, 13, 15, 18, 19, 21, 22, 23, 24, 27, 29, 37, 38, 39, 42, 43, 46, 48, 49, 50}, {6, 8, 9, 10, 11, 12, 15, 18, 19, 20, 21, 22, 23, 24, 25, 26, 29, 30, 31, 32, 34, 36, 38, 39, 43, 44, 46, 47, 48, 49, 50}, {2, 4, 9, 15, 18, 19, 21, 24, 26, 27, 32, 38, 41, 43, 44, 48, 49}, {26, 36, 42}, {2, 4, 6, 8, 10, 11, 13, 15, 16, 17, 18, 19, 20, 21, 24, 26, 27, 28, 29, 30, 31, 32, 35, 38, 41, 42, 44, 45, 50}];
RolesDemands = [1, 9, 1, 2];
RolesContinuity = [4];
ExamLen = [1, 1, 1, 1, 1, 1, 1, 1, 1, 1];
LunchTsMinLen = 0;
LunchStarts = [5..7, 15..16];
SupervisorAvailable = 5;
OptimalLunchLenght = [0, 0];
OptimalStartTs = [2, 0];
OptimalFinishTs = [1, 10];
MinimizeRooms = 200;
RolesSoftContinuity = [|1, 2, 3, 4|2, 2, 1, 3|];
SameDegreeInRoom = 20;
Mergeability = 1;
